c ---- [ banner ] ------------------------------------------------------------
c
c Kissat SAT Solver
c 
c Copyright (c) 2021-2022 Armin Biere University of Freiburg
c Copyright (c) 2019-2021 Armin Biere Johannes Kepler University Linz
c 
c Version 3.0.0 97917ddf2b12adc6f63c7b2a5a403a1ee7d81836
c gcc (Ubuntu 9.4.0-1ubuntu1~20.04.1) 9.4.0 -W -Wall -O3 -DNDEBUG
c Fri Oct 7 14:23:58 PDT 2022 Linux jap-Lenovo-Yoga-C740-15IML 5.15.0-48-generic x86_64
c
c ---- [ parsing ] -----------------------------------------------------------
c
c opened and reading DIMACS file:
c
c   Pigeon9Holes8
c
c parsed 'p cnf 72 297' header
c closing input after reading 3046 bytes (3 KB)
c finished parsing after 0.00 seconds
c
c ---- [ solving ] -----------------------------------------------------------
c
c  seconds switched rate      trail  variables
c         MB reductions conflicts glue   remaining
c          level restarts redundant irredundant
c
c *  0.00  1 0 0 0  0 0   0   0 0% 0 297 72 99%
c {  0.00  1 0 0 0  0 0   0   0 0% 0 297 72 99%
c u  0.01  3 9 0 0 44 2 619 269 96% 6 297 72 99%
c -  0.01  3 9 0 1 47 2 1001 459 95% 6 297 72 99%
c }  0.01  3 9 1 1 47 2 1001 459 95% 6 297 72 99%
c [  0.01  3 0 1 1 47 0 1001 459 0% 0 297 72 99%
c B  0.01  3 0 1 1 47 0 1001 459 0% 0 297 72 99%
c u  0.01  3 11 1 1 47 1 1237 148 95% 6 297 72 99%
c v  0.01  3 11 1 1 47 1 1237 133 95% 6 297 72 99%
c ]  0.02  3 11 2 1 47 1 1888 775 93% 7 297 72 99%
c {  0.02  3 9 2 1 47 2 1888 775 95% 6 297 72 99%
c -  0.02  3 10 2 2 47 2 2003 530 96% 6 297 72 99%
c u  0.03  3 9 2 2 92 2 2525 966 96% 6 297 72 99%
c v  0.03  3 9 2 2 92 2 2525 958 96% 6 297 72 99%
c }  0.03  3 9 3 2 98 2 2796 1228 95% 6 297 72 99%
c [  0.03  3 11 3 2 98 1 2796 1228 93% 7 297 72 99%
c W  0.03  3 11 3 2 98 1 2796 1228 93% 7 297 72 99%
c e  0.03  3 13 3 2 98 1 3093 1522 94% 7 288 63 86%
c ^  0.03  3 13 3 2 98 1 3093 1522 94% 7 288 63 86%
c -  0.04  3 13 3 3 98 1 3419 537 95% 8 288 63 86%
c
c  seconds  switched rate         trail  variables
c         MB reductions conflicts    glue    remaining
c          level restarts  redundant irredundant
c
c u  0.05  3 13 3 3 99 1 4524 1041 95% 8 288 63 86%
c v  0.05  3 13 3 3 99 1 4524 1023 95% 8 288 63 86%
c ]  0.05  3 13 4 3 99 1 4758 1247 95% 8 288 63 86%
c {  0.05  3 9 4 3 99 2 4758 1247 95% 6 288 63 86%
c -  0.05  3 9 4 4 133 2 5152 814 96% 6 288 63 86%
c ^  0.06  3 9 4 4 175 2 6153 1803 96% 6 288 63 86%
c }  0.07  3 9 5 4 239 2 7058 2707 96% 6 288 63 86%
c [  0.07  3 13 5 4 239 1 7058 2707 95% 8 288 63 86%
c I  0.07  3 13 5 4 239 1 7058 2707 95% 8 288 63 86%
c -  0.07  3 13 5 5 239 1 7152 2005 95% 8 288 63 86%
c u  0.08  3 14 5 5 239 1 7249 247 95% 9 288 63 86%
c v  0.08  3 14 5 5 239 1 7249 221 95% 9 288 63 86%
c ]  0.10  3 15 6 5 240 1 9138 1978 94% 10 288 63 86%
c {  0.10  3 9 6 5 240 2 9138 1978 96% 6 288 63 86%
c -  0.10  3 9 6 6 319 2 9388 806 95% 6 288 63 86%
c }  0.12  3 9 7 6 448 2 10562 1962 94% 6 288 63 86%
c [  0.12  3 15 7 6 448 1 10562 1962 94% 10 288 63 86%
c u  0.13  3 15 7 6 448 1 10758 2104 93% 10 288 63 86%
c v  0.13  3 15 7 6 448 1 10758 2066 93% 10 288 63 86%
c B  0.13  3 15 7 6 448 1 10829 2133 93% 10 288 63 86%
c
c  seconds  switched  rate          trail   variables
c         MB reductions conflicts       glue    remaining
c          level restarts    redundant  irredundant
c
c -  0.14  3 15 7 7 449 1 11837 1683 93% 10 288 63 86%
c ^  0.15  3 16 7 7 450 1 12788 2547 93% 10 288 63 86%
c ]  0.16  3 15 8 7 450 1 13299 3017 92% 10 288 63 86%
c {  0.16  3 9 8 7 450 2 13299 3017 94% 6 288 63 86%
c }  0.18  3 9 9 7 666 2 14210 3855 93% 7 288 63 86%
c [  0.18  3 15 9 7 666 1 14210 3855 92% 10 288 63 86%
c i  0.19  3 15 9 7 666 1 14463 4092 92% 10 288 62 85%
c -  0.19  3 15 9 8 666 1 14483 1346 92% 10 280 62 85%
c u  0.20  3 16 9 8 666 1 15074 1635 92% 10 280 62 85%
c v  0.20  3 16 9 8 666 1 15074 1633 92% 10 280 62 85%
c W  0.22  3 16 9 8 667 1 16359 2805 91% 10 280 62 85%
c i  0.22  3 16 9 8 667 1 16368 2813 91% 10 280 61 84%
c -  0.23  3 16 9 9 668 1 17312 953 91% 11 272 61 84%
c ]  0.23  3 16 10 9 668 1 17469 1108 91% 11 272 61 84%
c {  0.23  3 9 10 9 668 2 17469 1108 93% 7 272 61 84%
c u  0.27  3 9 10 9 836 2 20180 3541 94% 7 272 61 84%
c v  0.27  3 9 10 9 836 2 20180 3493 94% 7 272 61 84%
c -  0.28  3 9 10 10 860 2 20313 2416 94% 7 272 61 84%
c i  0.30  3 9 10 10 915 2 22169 4249 94% 6 272 60 82%
c }  0.30  3 9 11 10 993 2 22406 4484 94% 7 272 60 82%
c
c  seconds   switched   rate          trail   variables
c         MB   reductions conflicts       glue    remaining
c          level   restarts    redundant  irredundant
c
c [  0.30  3 16 11 10 993 1 22406 4484 91% 11 272 60 82%
c -  0.31  4 16 11 11 993 1 23476 742 92% 11 265 60 82%
c ^  0.31  4 16 11 11 993 1 23476 742 92% 11 265 60 82%
c O  0.32  4 16 11 11 994 1 23888 1137 92% 10 265 60 82%
c i  0.34  4 15 11 11 995 1 25505 2733 92% 10 265 59 81%
c u  0.34  4 15 11 11 995 1 26087 845 92% 10 265 59 81%
c v  0.34  4 15 11 11 995 1 26087 842 92% 10 265 59 81%
c -  0.35  4 16 11 12 996 1 26793 562 92% 10 257 59 81%
c i  0.37  4 15 11 12 997 1 28100 1827 92% 10 257 58 79%
c ]  0.38  4 15 12 12 997 1 28689 2360 92% 10 257 58 79%
c {  0.38  4 9 12 12 997 2 28689 2360 94% 7 257 58 79%
c i  0.39  4 9 12 12 1037 2 30166 3816 93% 6 257 57 78%
c -  0.40  4 9 12 13 1057 2 30258 451 93% 6 241 57 78%
c u  0.43  4 9 12 13 1232 2 32804 2438 93% 6 241 57 78%
c v  0.43  4 9 12 13 1232 2 32804 2379 93% 6 241 57 78%
c -  0.44  4 9 12 14 1256 2 33863 2405 93% 6 241 57 78%
c i  0.45  4 9 12 14 1284 2 34421 2953 93% 6 241 56 77%
c }  0.46  4 9 13 14 1333 2 35345 3873 93% 6 241 56 77%
c [  0.46  4 15 13 14 1333 1 35345 3873 92% 10 241 56 77%
c B  0.46  4 15 13 14 1333 1 35345 3873 92% 10 241 56 77%
c
c  seconds   switched    rate          trail   variables
c         MB   reductions  conflicts       glue    remaining
c          level    restarts    redundant  irredundant
c
c i  0.49  4 15 13 14 1334 1 37302 5757 91% 10 241 55 75%
c -  0.50  4 16 13 15 1335 1 37606 2051 91% 10 228 55 75%
c ^  0.50  4 16 13 15 1335 1 38238 2601 91% 10 228 55 75%
c ]  0.54  4 16 14 15 1336 1 40145 4376 90% 10 228 55 75%
c {  0.54  4 9 14 15 1336 2 40145 4376 93% 6 228 55 75%
c u  0.54  4 9 14 15 1336 2 40165 4311 93% 6 228 55 75%
c v  0.54  4 9 14 15 1336 2 40165 4308 93% 6 228 55 75%
c i  0.56  4 9 14 15 1410 2 40775 4905 93% 6 228 54 74%
c -  0.58  4 9 14 16 1474 2 41478 2042 92% 6 223 54 74%
c i  0.60  4 9 14 16 1592 2 42490 3033 92% 6 223 53 73%
c i  0.60  4 9 14 16 1592 2 42603 3142 92% 6 223 52 71%
c i  0.60  4 9 14 16 1592 2 42718 3253 92% 6 223 41 56%
c i  0.60  4 9 14 16 1592 2 42719 3253 92% 6 223 40 55%
c i  0.60  4 9 14 16 1592 2 42731 3256 92% 6 223 39 53%
c i  0.60  4 9 14 16 1592 2 42732 3256 92% 6 223 38 52%
c i  0.60  4 9 14 16 1592 2 42733 3256 92% 6 223 33 45%
c i  0.60  4 9 14 16 1592 2 42737 3259 92% 6 223 28 38%
c }  0.60  4 9 14 16 1592 2 42739 3259 92% 6 223 15 21%
c 0  0.60  4 9 14 16 1592 2 42739 3259 92% 6 223 15 21%
c
c ---- [ result ] ------------------------------------------------------------
c
s UNSATISFIABLE
c
c ---- [ profiling ] ---------------------------------------------------------
c
c           0.55   91.16 %  search
c           0.28   46.36 %  focused
c           0.27   44.79 %  stable
c           0.05    8.80 %  simplify
c           0.05    8.06 %  probe
c           0.04    5.85 %  vivify
c           0.01    1.58 %  reduce
c           0.01    1.17 %  substitute
c           0.01    0.94 %  sweep
c           0.00    0.64 %  eliminate
c           0.00    0.10 %  walking
c           0.00    0.09 %  backbone
c           0.00    0.02 %  parse
c           0.00    0.02 %  subsume
c           0.00    0.01 %  warmup
c =============================================
c           0.60  100.00 %  total
c
c ---- [ statistics ] --------------------------------------------------------
c
c conflicts:                            42739            70624.76 per second
c decisions:                            63123                1.48 per conflict
c eliminated:                               9               12 %  variables
c propagations:                        572423           945910    per second
c reductions:                              16             2671    interval
c rephased:                                 7             6106    interval
c restarts:                              1592               26.85 interval
c strengthened:                           347              207 %  checks
c subsumed:                                21               12 %  checks
c vivified:                              5351               94 %  checks
c walks:                                    2            21370    interval
c
c ---- [ resources ] ---------------------------------------------------------
c
c maximum-resident-set-size:          4214784 bytes          4 MB
c process-time:                             1s               0.60 seconds
c
c ---- [ shutting down ] -----------------------------------------------------
c
c exit 20
